100
300
75
753 543
998 568
866 469
891 523
1020 509
1023 426
916 399
912 535
882 410
897 412
1061 383
918 483
900 526
984 397
983 509
907 536
857 399
910 382
991 403
1016 435
862 379
973 391
980 503
997 520
954 453
969 435
765 889
558 815
778 997
832 837
631 897
691 936
755 998
679 1041
656 898
630 923
732 918
692 988
799 894
734 1053
621 943
679 973
766 1017
692 945
596 934
690 943
696 975
688 796
644 897
734 941
736 1068
618 148
645 252
695 322
626 239
642 314
573 285
718 220
636 284
713 120
680 156
686 311
668 160
662 271
672 290
747 328
647 238
622 147
612 208
610 243
673 113
669 208
690 258
678 92
669 135
672 296
753 543